32	0

0	1	2
8	1	3
7	1	4
8	1	5
1	1	6
3	1	7
10	1	8
1	1	9
1	1	10
5	1	11
2	1	12
6	1	13
1	1	14
6	1	15
7	1	16
3	1	17
5	1	18
10	1	19
1	1	20
1	1	21
10	1	22
8	1	23
6	1	24
3	1	25
3	1	26
7	1	27
1	1	28
3	1	29
1	1	30
1	1	31
1	1	32
0	0
